NAME : instances/clustered-mixed-tsp/instance-48.tsp
COMMENT : No Comment
TYPE : TSP
DIMENSION: 54
EDGE_WEIGHT_TYPE : EUC_2D
NODE_COORD_SECTION
1 951 676 
2 26 981 
3 409 466 
4 771 692 
5 506 735 
6 601 290 
7 1119 436 
8 855 1048 
9 510 571 
10 745 474 
11 757 206 
12 406 739 
13 138 683 
14 494 703 
15 473 114 
16 696 913 
17 405 290 
18 814 763 
19 142 411 
20 779 468 
21 722 563 
22 386 985 
23 703 1112 
24 723 864 
25 745 466 
26 1131 600 
27 555 920 
28 799 1024 
29 421 154 
30 330 969 
31 757 146 
32 110 523 
33 831 988 
34 854 663 
35 641 218 
36 78 909 
37 951 436 
38 445 98 
39 823 576 
40 582 891 
41 330 701 
42 608 355 
43 1071 428 
44 322 637 
45 1079 528 
46 495 788 
47 290 629 
48 1047 616 
49 125 597 
50 162 363 
51 591 1116 
52 445 182 
53 699 1028 
54 432 749 
EOF
